
  32    4
  10   10   10   10

   0   0   0   0   0   1 2 
   5   1   1   1   0   2 11 3 
   9   4   5   0   1   1 4 
   8   7   6   0   3   1 5 
  10   0   3   5   2   1 6 
  10   3   6   0   4   1 7 
   2   6   3   5   0   2 29 8 
  10   0   4   5   2   1 9 
   4   5   3   7   0   1 10 
  10   0   4   2   3   1 12 
   5   2   0   5   4   1 12 
   2   4   3   0   7   1 13 
   3   6   0   4   2   1 14 
  10   0   3   5   1   1 15 
   5   0   4   3   4   1 16 
   6   4   0   1   8   1 17 
  10   4   2   3   0   1 18 
   2   0   3   3   5   1 19 
  10   3   4   0   7   1 20 
   5   7   4   0   5   1 21 
   6   2   9   0   4   1 22 
   4   3   5   0   4   2 31 23 
   3   0   4   5   6   1 24 
   9   3   3   6   0   1 25 
   7   2   0   6   6   1 26 
  10   2   3   0   3   1 27 
   7   0   4   4   3   1 28 
   1   7   4   3   0   1 30 
   9   4   0   1   2   1 30 
  10   0   6   6   5   1 32
   7   5   0   4   5   1 32
   0   0   0   0   0   0 
